g3 0 1 0	# problem ex8_4_6
 14 8 1 0 8	# vars, constraints, objectives, ranges, eqns
 8 1	# nonlinear constraints, objectives
 0 0	# network constraints: nonlinear, linear
 6 14 0	# nonlinear vars in constraints, objectives, both
 0 0 0 1	# linear network variables; functions; arith, flags
 0 0 0 0 0	# discrete variables: binary, integer, nonlinear (b,c,o)
 56 8	# nonzeros in Jacobian, gradients
 0 0	# max name lengths: constraints, variables
 0 0 0 0 0	# common exprs: b,c,o,c1,o1
b
0 -10 10
0 -10 10
0 -10 10
0 0 0.5
0 0 0.5
0 0 0.5
0 0 1
0 0 1
0 0 1
0 0 1
0 0 1
0 0 1
0 0 1
0 0 1
x14
0 0.355
1 2.007
2 -4.575
3 0.015
4 0.11
5 0.285
6 0.171747132
7 0.843266708
8 0.550375356
9 0.301137904
10 0.292212117
11 0.224052867
12 0.349830504
13 0.856270347
r
4 0
4 0
4 0
4 0
4 0
4 0
4 0
4 0
C0
o54
3
o2
v0
o44
o2
n-4
v3
o2
v1
o44
o2
n-4
v4
o2
v2
o44
o2
n-4
v5
C1
o54
3
o2
v0
o44
o2
n-8
v3
o2
v1
o44
o2
n-8
v4
o2
v2
o44
o2
n-8
v5
C2
o54
3
o2
v0
o44
o2
n-12
v3
o2
v1
o44
o2
n-12
v4
o2
v2
o44
o2
n-12
v5
C3
o54
3
o2
v0
o44
o2
n-24
v3
o2
v1
o44
o2
n-24
v4
o2
v2
o44
o2
n-24
v5
C4
o54
3
o2
v0
o44
o2
n-48
v3
o2
v1
o44
o2
n-48
v4
o2
v2
o44
o2
n-48
v5
C5
o54
3
o2
v0
o44
o2
n-72
v3
o2
v1
o44
o2
n-72
v4
o2
v2
o44
o2
n-72
v5
C6
o54
3
o2
v0
o44
o2
n-94
v3
o2
v1
o44
o2
n-94
v4
o2
v2
o44
o2
n-94
v5
C7
o54
3
o2
v0
o44
o2
n-118
v3
o2
v1
o44
o2
n-118
v4
o2
v2
o44
o2
n-118
v5
O0 0
o54
8
o5
o3
o0
n-0.1622
v6
v6
n2
o5
o3
o0
n-0.6791
v7
v7
n2
o5
o3
o0
n-0.679
v8
v8
n2
o5
o3
o0
n-0.3875
v9
v9
n2
o5
o3
o0
n-0.1822
v10
v10
n2
o5
o3
o0
n-0.1249
v11
v11
n2
o5
o3
o0
n-0.0857
v12
v12
n2
o5
o3
o0
n-0.0616
v13
v13
n2
k13
8
16
24
32
40
48
49
50
51
52
53
54
55
J0 7
0 0
1 0
2 0
3 0
4 0
5 0
6 -1
J1 7
0 0
1 0
2 0
3 0
4 0
5 0
7 -1
J2 7
0 0
1 0
2 0
3 0
4 0
5 0
8 -1
J3 7
0 0
1 0
2 0
3 0
4 0
5 0
9 -1
J4 7
0 0
1 0
2 0
3 0
4 0
5 0
10 -1
J5 7
0 0
1 0
2 0
3 0
4 0
5 0
11 -1
J6 7
0 0
1 0
2 0
3 0
4 0
5 0
12 -1
J7 7
0 0
1 0
2 0
3 0
4 0
5 0
13 -1
G0 8
6 0
7 0
8 0
9 0
10 0
11 0
12 0
13 0
